\ LP format - for model browsing. Use MPS format to capture full model detail.
Minimize
  zeta_sub_2
Subject To
 R0: zeta_sub_2 - 1.27611256e+08 y_2_0 - 5.1682146e+07 y_2_1
   - 2.10218158e+08 y_2_2 - 9.9345828e+07 y_2_3 - 1.3970507e+07 y_2_4
   - 6.68731e+07 y_2_5 - 9.0360912e+07 y_2_6 + 2.5335219e+07 y_2_7
   - 3.58568315e+08 y_2_8 + 5.662968e+06 y_2_9 - 1.58320649e+08 y_2_10
   - 3.595959e+07 y_2_11 - 1.24422729e+08 y_2_12 - 2.1179852e+07 y_2_13
   - 3.50012128e+08 y_2_14 - 3.46190772e+08 y_2_15 - 5.0798369e+07 y_2_16
   - 3.28634555e+08 y_2_17 - 6.8818008e+07 y_2_18 - 1.89437446e+08 y_2_19
   - 3.52430416e+08 y_2_20 - 1.20943054e+08 y_2_21 - 3.9824233e+07 y_2_22
   >= 0
 R1: y_2_6 + y_2_7 + y_2_8 + y_2_9 + y_2_10 = 1
 R2: y_2_16 + y_2_17 + y_2_18 = 0
 R3: - y_2_6 + y_2_11 + y_2_12 + y_2_13 = 0
 R4: y_2_0 + y_2_1 + y_2_2 - y_2_9 = 0
 R5: - y_2_0 + y_2_3 + y_2_4 - y_2_8 - y_2_11 = 0
 R6: - y_2_2 + y_2_14 + y_2_15 - y_2_17 = 0
 R7: - y_2_10 - y_2_13 - y_2_16 + y_2_19 + y_2_20 = 0
 R8: - y_2_7 - y_2_12 + y_2_21 = 0
 R9: - y_2_4 - y_2_15 - y_2_18 - y_2_19 + y_2_22 = 0
 R10: - y_2_1 - y_2_3 + y_2_5 = 0
 R11: - y_2_5 - y_2_14 - y_2_20 - y_2_21 - y_2_22 = -1
Bounds
 y_2_0 <= 1
 y_2_1 <= 1
 y_2_2 <= 1
 y_2_3 <= 1
 y_2_4 <= 1
 y_2_5 <= 1
 y_2_6 <= 1
 y_2_7 <= 1
 y_2_8 <= 1
 y_2_9 <= 1
 y_2_10 <= 1
 y_2_11 <= 1
 y_2_12 <= 1
 y_2_13 <= 1
 y_2_14 <= 1
 y_2_15 <= 1
 y_2_16 <= 1
 y_2_17 <= 1
 y_2_18 <= 1
 y_2_19 <= 1
 y_2_20 <= 1
 y_2_21 <= 1
 y_2_22 <= 1
End
